30 30
20
3 3 0 13
3 4 23 9
3 5 3 0
3 6 24 0
3 7 23 13
3 8 20 6
3 9 27 0
3 10 23 20
3 11 17 19
3 13 0 0
3 14 0 16
3 16 20 14
3 19 17 0
3 25 3 5
4 3 23 6
4 4 26 9
4 6 20 0
4 8 26 22
4 9 26 13
11 30 6 0
